solution status: optimal solution found
objective value:                     230721.355564173
d11(0,0)                                            1 	(obj:0)
d11(1,1)                                            1 	(obj:0)
d11(2,3)                                            1 	(obj:0)
d11(2,4)                                            1 	(obj:0)
d11(2,5)                                            1 	(obj:0)
d11(2,6)                                            1 	(obj:0)
d11(3,7)                                            1 	(obj:0)
d11(3,8)                                            1 	(obj:0)
d11(3,9)                                            1 	(obj:0)
d11(3,11)                                           1 	(obj:0)
d11(3,12)                                           1 	(obj:0)
d11(3,13)                                           1 	(obj:0)
d11(3,14)                                           1 	(obj:0)
d11(4,15)                                           1 	(obj:0)
d11(4,16)                                           1 	(obj:0)
d11(4,17)                                           1 	(obj:0)
d11(4,18)                                           1 	(obj:0)
d11(4,19)                                           1 	(obj:0)
d11(4,20)                                           1 	(obj:0)
d11(4,21)                                           1 	(obj:0)
d11(4,23)                                           1 	(obj:0)
d11(4,25)                                           1 	(obj:0)
d11(4,26)                                           1 	(obj:0)
d11(4,27)                                           1 	(obj:0)
d11(4,28)                                           1 	(obj:0)
d11(4,29)                                           1 	(obj:0)
d11(5,41)                           0.999999999999996 	(obj:0)
d11(6,63)                                           1 	(obj:0)
d11(6,65)                                           1 	(obj:0)
d11(6,67)                                           1 	(obj:0)
d11(6,69)                                           1 	(obj:0)
d11(6,71)                                           1 	(obj:0)
d11(6,73)                                           1 	(obj:0)
d11(6,75)                                           1 	(obj:0)
d11(6,79)                                           1 	(obj:0)
d11(6,81)                                           1 	(obj:0)
d11(6,83)                                           1 	(obj:0)
d11(6,85)                                           1 	(obj:0)
d11(6,87)                                           1 	(obj:0)
d11(6,89)                                           1 	(obj:0)
d11(6,91)                                           1 	(obj:0)
d11(6,93)                                           1 	(obj:0)
d11(6,95)                                           1 	(obj:0)
d11(6,97)                                           1 	(obj:0)
d11(6,101)                                          1 	(obj:0)
d11(6,103)                                          1 	(obj:0)
d11(6,105)                                          1 	(obj:0)
d11(6,107)                                          1 	(obj:0)
d11(6,109)                                          1 	(obj:0)
d11(6,111)                                          1 	(obj:0)
d11(6,117)                                          1 	(obj:0)
d11(6,119)                                          1 	(obj:0)
d11(6,121)                                          1 	(obj:0)
d11(6,125)                                          1 	(obj:0)
d12(5,32)                                           1 	(obj:0)
d12(5,34)                                           1 	(obj:0)
d12(5,36)                                           1 	(obj:0)
d12(5,38)                                           1 	(obj:0)
d12(5,40)                                           1 	(obj:0)
d12(5,42)                                           1 	(obj:0)
d12(5,44)                                           1 	(obj:0)
d12(5,46)                                           1 	(obj:0)
d12(5,48)                                           1 	(obj:0)
d12(5,50)                                           1 	(obj:0)
d12(5,52)                                           1 	(obj:0)
d12(5,54)                                           1 	(obj:0)
d12(5,56)                                           1 	(obj:0)
d12(5,58)                                           1 	(obj:0)
d12(5,60)                                           1 	(obj:0)
d12(5,62)                                           1 	(obj:0)
d12(6,64)                                           1 	(obj:0)
d12(6,66)                                           1 	(obj:0)
d12(6,68)                                           1 	(obj:0)
d12(6,70)                                           1 	(obj:0)
d12(6,72)                                           1 	(obj:0)
d12(6,74)                                           1 	(obj:0)
d12(6,76)                                           1 	(obj:0)
d12(6,78)                                           1 	(obj:0)
d12(6,80)                                           1 	(obj:0)
d12(6,82)                                           1 	(obj:0)
d12(6,84)                                           1 	(obj:0)
d12(6,86)                                           1 	(obj:0)
d12(6,88)                                           1 	(obj:0)
d12(6,90)                                           1 	(obj:0)
d12(6,92)                                           1 	(obj:0)
d12(6,94)                                           1 	(obj:0)
d12(6,96)                                           1 	(obj:0)
d12(6,98)                                           1 	(obj:0)
d12(6,100)                                          1 	(obj:0)
d12(6,102)                                          1 	(obj:0)
d12(6,104)                                          1 	(obj:0)
d12(6,106)                                          1 	(obj:0)
d12(6,108)                                          1 	(obj:0)
d12(6,110)                                          1 	(obj:0)
d12(6,112)                                          1 	(obj:0)
d12(6,114)                                          1 	(obj:0)
d12(6,116)                                          1 	(obj:0)
d12(6,118)                                          1 	(obj:0)
d12(6,120)                                          1 	(obj:0)
d12(6,122)                                          1 	(obj:0)
d12(6,124)                                          1 	(obj:0)
d12(6,126)                                          1 	(obj:0)
d21(3,7)                                            1 	(obj:0)
d21(4,15)                                           1 	(obj:0)
d21(4,16)                                           1 	(obj:0)
d21(4,17)                                           1 	(obj:0)
d21(4,19)                                           1 	(obj:0)
d21(4,23)                                           1 	(obj:0)
d21(5,31)                                           1 	(obj:0)
d21(5,32)                                           1 	(obj:0)
d21(5,33)                                           1 	(obj:0)
d21(5,34)                                           1 	(obj:0)
d21(5,35)                                           1 	(obj:0)
d21(5,36)                                           1 	(obj:0)
d21(5,37)                                           1 	(obj:0)
d21(5,39)                                           1 	(obj:0)
d21(5,40)                                           1 	(obj:0)
d21(5,41)                                           1 	(obj:0)
d21(5,43)                                           1 	(obj:0)
d21(5,47)                                           1 	(obj:0)
d21(5,48)                                           1 	(obj:0)
d21(5,49)                                           1 	(obj:0)
d21(5,51)                                           1 	(obj:0)
d21(5,55)                                           1 	(obj:0)
d21(6,63)                                           1 	(obj:0)
d21(6,64)                                           1 	(obj:0)
d21(6,65)                                           1 	(obj:0)
d21(6,66)                                           1 	(obj:0)
d21(6,67)                                           1 	(obj:0)
d21(6,68)                                           1 	(obj:0)
d21(6,69)                                           1 	(obj:0)
d21(6,70)                                           1 	(obj:0)
d21(6,71)                                           1 	(obj:0)
d21(6,72)                                           1 	(obj:0)
d21(6,73)                                           1 	(obj:0)
d21(6,74)                                           1 	(obj:0)
d21(6,75)                                           1 	(obj:0)
d21(6,76)                                           1 	(obj:0)
d21(6,77)                                           1 	(obj:0)
d21(6,79)                                           1 	(obj:0)
d21(6,80)                                           1 	(obj:0)
d21(6,81)                                           1 	(obj:0)
d21(6,82)                                           1 	(obj:0)
d21(6,83)                                           1 	(obj:0)
d21(6,87)                                           1 	(obj:0)
d21(6,88)                                           1 	(obj:0)
d21(6,95)                                           1 	(obj:0)
d21(6,96)                                           1 	(obj:0)
d21(6,97)                                           1 	(obj:0)
d21(6,98)                                           1 	(obj:0)
d21(6,99)                                           1 	(obj:0)
d21(6,103)                                          1 	(obj:0)
d21(6,104)                                          1 	(obj:0)
d21(6,111)                                          1 	(obj:0)
y2(6,100)                            1385.48851144891 	(obj:0)
y2(6,102)                            1385.48851144891 	(obj:0)
y2(6,104)                            1385.48851144891 	(obj:0)
y2(6,106)                            1385.48851144891 	(obj:0)
y2(6,108)                            1385.48851144891 	(obj:0)
y2(6,110)                            1385.48851144891 	(obj:0)
y2(6,112)                            1385.48851144891 	(obj:0)
y2(6,114)                            1385.48851144891 	(obj:0)
y2(6,116)                            1385.48851144891 	(obj:0)
y2(6,118)                            1385.48851144891 	(obj:0)
y2(6,120)                            1385.48851144891 	(obj:0)
y2(6,122)                            1385.48851144891 	(obj:0)
y2(6,124)                            1385.48851144891 	(obj:0)
y2(6,126)                            1385.48851144891 	(obj:0)
STE(1,1)                             7035.75010111115 	(obj:0)
STE(0,0)                                         9450 	(obj:0)
STE(1,2)                                         8694 	(obj:0)
STE(2,3)                              3597.7860141235 	(obj:0)
STE(2,4)                              5256.0359130124 	(obj:0)
STE(2,5)                             5256.03591301235 	(obj:0)
STE(2,6)                             6914.28581190122 	(obj:0)
STE(3,7)                             1183.53611523469 	(obj:0)
STE(3,8)                              2841.7860141235 	(obj:0)
STE(3,9)                             2841.78601412358 	(obj:0)
STE(3,10)                             4500.0359130124 	(obj:0)
STE(3,11)                            2841.78601412353 	(obj:0)
STE(3,12)                            4500.03591301235 	(obj:0)
STE(3,13)                             4500.0359130124 	(obj:0)
STE(3,14)                            6158.28581190122 	(obj:0)
STE(4,15)                           -1230.71378365418 	(obj:0)
STE(4,16)                            427.536115234634 	(obj:0)
STE(4,17)                            427.536115234634 	(obj:0)
STE(4,18)                            2085.78601412344 	(obj:0)
STE(4,19)                            427.536115234715 	(obj:0)
STE(4,20)                            2085.78601412353 	(obj:0)
STE(4,21)                            2085.78601412353 	(obj:0)
STE(4,22)                             3744.0359130124 	(obj:0)
STE(4,23)                            427.536115234662 	(obj:0)
STE(4,24)                            2085.78601412353 	(obj:0)
STE(4,25)                            2085.78601412348 	(obj:0)
STE(4,26)                             3744.0359130123 	(obj:0)
STE(4,27)                            2085.78601412353 	(obj:0)
STE(4,28)                            3744.03591301235 	(obj:0)
STE(4,29)                            3744.03591301235 	(obj:0)
STE(4,30)                            5402.28581190122 	(obj:0)
STE(5,31)                           -1986.71378365418 	(obj:0)
STE(5,32)                           -670.499697777678 	(obj:0)
STE(5,33)                           -328.463884765366 	(obj:0)
STE(5,34)                             987.75020111114 	(obj:0)
STE(5,35)                           -328.463884765366 	(obj:0)
STE(5,36)                             987.75020111114 	(obj:0)
STE(5,37)                            1329.78601412344 	(obj:0)
STE(5,38)                            2646.00009999995 	(obj:0)
STE(5,39)                           -328.463884765285 	(obj:0)
STE(5,40)                            987.750201111221 	(obj:0)
STE(5,41)                            1329.78601412353 	(obj:0)
STE(5,42)                            2646.00010000004 	(obj:0)
STE(5,43)                            1329.78601412353 	(obj:0)
STE(5,44)                            2646.00010000004 	(obj:0)
STE(5,45)                             2988.0359130124 	(obj:0)
STE(5,46)                            4304.24999888891 	(obj:0)
STE(5,47)                           -328.463884765338 	(obj:0)
STE(5,48)                            987.750201111168 	(obj:0)
STE(5,49)                            1329.78601412353 	(obj:0)
STE(5,50)                            2646.00010000004 	(obj:0)
STE(5,51)                            1329.78601412348 	(obj:0)
STE(5,52)                            2646.00009999998 	(obj:0)
STE(5,53)                             2988.0359130123 	(obj:0)
STE(5,54)                             4304.2499988888 	(obj:0)
STE(5,55)                            1329.78601412353 	(obj:0)
STE(5,56)                            2646.00010000004 	(obj:0)
STE(5,57)                            2988.03591301235 	(obj:0)
STE(5,58)                            4304.24999888885 	(obj:0)
STE(5,59)                            2988.03591301235 	(obj:0)
STE(5,60)                            4304.24999888886 	(obj:0)
STE(5,61)                            4646.28581190122 	(obj:0)
STE(5,62)                            5962.49989777773 	(obj:0)
STE(6,63)                           -2742.71378365418 	(obj:0)
STE(6,64)                           -1426.49969777772 	(obj:0)
STE(6,65)                           -1426.49969777768 	(obj:0)
STE(6,66)                           -110.285611901209 	(obj:0)
STE(6,67)                           -1084.46388476537 	(obj:0)
STE(6,68)                            231.750201111102 	(obj:0)
STE(6,69)                             231.75020111114 	(obj:0)
STE(6,70)                            1547.96428698761 	(obj:0)
STE(6,71)                           -1084.46388476537 	(obj:0)
STE(6,72)                            231.750201111102 	(obj:0)
STE(6,73)                             231.75020111114 	(obj:0)
STE(6,74)                            1547.96428698761 	(obj:0)
STE(6,75)                            573.786014123441 	(obj:0)
STE(6,76)                            1890.00009999991 	(obj:0)
STE(6,77)                            1890.00009999995 	(obj:0)
STE(6,78)                            3206.21418587641 	(obj:0)
STE(6,79)                           -1084.46388476529 	(obj:0)
STE(6,80)                            231.750201111182 	(obj:0)
STE(6,81)                            231.750201111221 	(obj:0)
STE(6,82)                            1547.96428698769 	(obj:0)
STE(6,83)                            573.786014123533 	(obj:0)
STE(6,84)                                   1890.0001 	(obj:0)
STE(6,85)                            1890.00010000004 	(obj:0)
STE(6,86)                            3206.21418587651 	(obj:0)
STE(6,87)                            573.786014123531 	(obj:0)
STE(6,88)                                   1890.0001 	(obj:0)
STE(6,89)                            1890.00010000004 	(obj:0)
STE(6,90)                            3206.21418587651 	(obj:0)
STE(6,91)                             2232.0359130124 	(obj:0)
STE(6,92)                            3548.24999888887 	(obj:0)
STE(6,93)                            3548.24999888891 	(obj:0)
STE(6,94)                            4864.46408476537 	(obj:0)
STE(6,95)                           -1084.46388476534 	(obj:0)
STE(6,96)                             231.75020111113 	(obj:0)
STE(6,97)                            231.750201111168 	(obj:0)
STE(6,98)                            1547.96428698764 	(obj:0)
STE(6,99)                            573.786014123532 	(obj:0)
STE(6,100)                                  1890.0001 	(obj:0)
STE(6,101)                           1890.00010000004 	(obj:0)
STE(6,102)                           3206.21418587651 	(obj:0)
STE(6,103)                           573.786014123478 	(obj:0)
STE(6,104)                           1890.00009999995 	(obj:0)
STE(6,105)                           1890.00009999998 	(obj:0)
STE(6,106)                           3206.21418587645 	(obj:0)
STE(6,107)                            2232.0359130123 	(obj:0)
STE(6,108)                           3548.24999888876 	(obj:0)
STE(6,109)                            3548.2499988888 	(obj:0)
STE(6,110)                           4864.46408476527 	(obj:0)
STE(6,111)                           573.786014123532 	(obj:0)
STE(6,112)                                  1890.0001 	(obj:0)
STE(6,113)                           1890.00010000004 	(obj:0)
STE(6,114)                           3206.21418587651 	(obj:0)
STE(6,115)                           2232.03591301235 	(obj:0)
STE(6,116)                           3548.24999888882 	(obj:0)
STE(6,117)                           3548.24999888885 	(obj:0)
STE(6,118)                           4864.46408476532 	(obj:0)
STE(6,119)                           2232.03591301235 	(obj:0)
STE(6,120)                           3548.24999888882 	(obj:0)
STE(6,121)                           3548.24999888886 	(obj:0)
STE(6,122)                           4864.46408476532 	(obj:0)
STE(6,123)                           3890.28581190122 	(obj:0)
STE(6,124)                           5206.49989777769 	(obj:0)
STE(6,125)                           5206.49989777773 	(obj:0)
STE(6,126)                           6522.71398365419 	(obj:0)
BG(5)                                2673.40993877551 	(obj:10)
AVE(1)                               3259.55177567504 	(obj:0)
AVE(2)                               3259.55588804169 	(obj:0)
AVE(3)                               3579.36165209166 	(obj:0)
AVE(4)                               3579.36576445831 	(obj:0)
WB(5)                                3472.77007794174 	(obj:0)
AVE(5)                               3472.77007794174 	(obj:0)
WB(6)                                372.951956291251 	(obj:0)
AVE(6)                                3046.3618950668 	(obj:0)
WG(1)                                3259.55177567504 	(obj:10)
WG(2)                                3259.55588804169 	(obj:10)
WG(3)                                3579.36165209166 	(obj:10)
WG(4)                                3579.36576445831 	(obj:10)
WG(6)                                2673.40993877555 	(obj:10)
BG(1)                                936.740723304551 	(obj:10)
BG(2)                                1876.88229388578 	(obj:10)
BG(3)                                616.930846887905 	(obj:10)
BG(4)                                616.926734521304 	(obj:10)
y1(1,1)                              1492.42490899996 	(obj:0)
y1(2,3)                              2413.76767828889 	(obj:0)
y1(2,4)                              921.342769288878 	(obj:0)
y1(2,5)                              2413.76767828889 	(obj:0)
y1(2,6)                              921.342769288903 	(obj:0)
y1(3,7)                              1492.42490899994 	(obj:0)
y1(3,9)                              1492.42490899994 	(obj:0)
y1(3,11)                             1492.42490899994 	(obj:0)
y1(3,13)                             1492.42490899994 	(obj:0)
y1(4,15)                             1492.42490899998 	(obj:0)
y1(4,17)                             1492.42490899998 	(obj:0)
y1(4,19)                             1492.42490899998 	(obj:0)
y1(4,21)                             1492.42490899998 	(obj:0)
y1(4,23)                             1492.42490899998 	(obj:0)
y1(4,25)                             1492.42490899998 	(obj:0)
y1(4,27)                             1492.42490899998 	(obj:0)
y1(4,29)                             1492.42490899998 	(obj:0)
y2(5,32)                             1385.48851144895 	(obj:0)
y2(5,34)                             1385.48851144895 	(obj:0)
y2(5,36)                             1385.48851144895 	(obj:0)
y2(5,38)                             1385.48851144895 	(obj:0)
y2(5,40)                             1385.48851144895 	(obj:0)
y2(5,42)                             1385.48851144895 	(obj:0)
y2(5,44)                             1385.48851144895 	(obj:0)
y2(5,46)                             1385.48851144895 	(obj:0)
y2(5,48)                             1385.48851144895 	(obj:0)
y2(5,50)                             1385.48851144895 	(obj:0)
y2(5,52)                             1385.48851144895 	(obj:0)
y2(5,54)                             1385.48851144895 	(obj:0)
y2(5,56)                             1385.48851144895 	(obj:0)
y2(5,58)                             1385.48851144895 	(obj:0)
y2(5,60)                             1385.48851144895 	(obj:0)
y2(5,62)                             1385.48851144895 	(obj:0)
y2(6,64)                             1385.48851144891 	(obj:0)
y2(6,66)                             1385.48851144891 	(obj:0)
y2(6,68)                             1385.48851144891 	(obj:0)
y2(6,70)                             1385.48851144891 	(obj:0)
y2(6,72)                             1385.48851144891 	(obj:0)
y2(6,74)                             1385.48851144891 	(obj:0)
y2(6,76)                             1385.48851144891 	(obj:0)
y2(6,78)                             1385.48851144891 	(obj:0)
y2(6,80)                             1385.48851144891 	(obj:0)
y2(6,82)                             1385.48851144891 	(obj:0)
y2(6,84)                             1385.48851144891 	(obj:0)
y2(6,86)                             1385.48851144891 	(obj:0)
y2(6,88)                             1385.48851144891 	(obj:0)
y2(6,90)                             1385.48851144891 	(obj:0)
y2(6,92)                             1385.48851144891 	(obj:0)
y2(6,94)                             1385.48851144891 	(obj:0)
y2(6,96)                             1385.48851144891 	(obj:0)
y2(6,98)                             1385.48851144891 	(obj:0)
